 &control
    calculation     = 'bands'
    prefix          = 'si'
    restart_mode    = 'from_scratch'
    pseudo_dir      = '~/PP/all'
    outdir          = './temp_standard/'
 /
 &system
    ibrav     = 0
    celldm(1) = 10.26328
    nat       = 2
    ntyp      = 1
    ecutwfc   = 70.0
    nbnd      = 8
 /
 &electrons
    diagonalization = 'david'
    mixing_beta     = 0.7
    conv_thr        = 1.0d-15
 /
ATOMIC_SPECIES
 Si  28.0855  Si.dojo.sr.ONCVv0.4.lda.standard.upf
CELL_PARAMETERS alat
 0.0 0.5 0.5
 0.5 0.0 0.5
 0.5 0.5 0.0
ATOMIC_POSITIONS crystal
 Si 0.50  0.50 -0.50
 Si 0.75  0.75 -0.25
K_POINTS crystal
87
  0.00000000  0.00000000  0.00000000 1.0
  0.02631579  0.00000000  0.02631579 1.0
  0.05263158  0.00000000  0.05263158 1.0
  0.07894737  0.00000000  0.07894737 1.0
  0.10526316  0.00000000  0.10526316 1.0
  0.13157895  0.00000000  0.13157895 1.0
  0.15789474  0.00000000  0.15789474 1.0
  0.18421053  0.00000000  0.18421053 1.0
  0.21052632  0.00000000  0.21052632 1.0
  0.23684211  0.00000000  0.23684211 1.0
  0.26315789  0.00000000  0.26315789 1.0
  0.28947368  0.00000000  0.28947368 1.0
  0.31578947  0.00000000  0.31578947 1.0
  0.34210526  0.00000000  0.34210526 1.0
  0.36842105  0.00000000  0.36842105 1.0
  0.39473684  0.00000000  0.39473684 1.0
  0.42105263  0.00000000  0.42105263 1.0
  0.44736842  0.00000000  0.44736842 1.0
  0.47368421  0.00000000  0.47368421 1.0
  0.50000000  0.00000000  0.50000000 1.0
  0.52083333  0.04166667  0.52083333 1.0
  0.54166667  0.08333333  0.54166667 1.0
  0.56250000  0.12500000  0.56250000 1.0
  0.58333333  0.16666667  0.58333333 1.0
  0.60416667  0.20833333  0.60416667 1.0
  0.62500000  0.25000000  0.62500000 1.0
  0.37500000  0.37500000  0.75000000 1.0
  0.35714286  0.35714286  0.71428571 1.0
  0.33928571  0.33928571  0.67857143 1.0
  0.32142857  0.32142857  0.64285714 1.0
  0.30357143  0.30357143  0.60714286 1.0
  0.28571429  0.28571429  0.57142857 1.0
  0.26785714  0.26785714  0.53571429 1.0
  0.25000000  0.25000000  0.50000000 1.0
  0.23214286  0.23214286  0.46428571 1.0
  0.21428571  0.21428571  0.42857143 1.0
  0.19642857  0.19642857  0.39285714 1.0
  0.17857143  0.17857143  0.35714286 1.0
  0.16071429  0.16071429  0.32142857 1.0
  0.14285714  0.14285714  0.28571429 1.0
  0.12500000  0.12500000  0.25000000 1.0
  0.10714286  0.10714286  0.21428571 1.0
  0.08928571  0.08928571  0.17857143 1.0
  0.07142857  0.07142857  0.14285714 1.0
  0.05357143  0.05357143  0.10714286 1.0
  0.03571429  0.03571429  0.07142857 1.0
  0.01785714  0.01785714  0.03571429 1.0
  0.00000000  0.00000000  0.00000000 1.0
  0.02941176  0.02941176  0.02941176 1.0
  0.05882353  0.05882353  0.05882353 1.0
  0.08823529  0.08823529  0.08823529 1.0
  0.11764706  0.11764706  0.11764706 1.0
  0.14705882  0.14705882  0.14705882 1.0
  0.17647059  0.17647059  0.17647059 1.0
  0.20588235  0.20588235  0.20588235 1.0
  0.23529412  0.23529412  0.23529412 1.0
  0.26470588  0.26470588  0.26470588 1.0
  0.29411765  0.29411765  0.29411765 1.0
  0.32352941  0.32352941  0.32352941 1.0
  0.35294118  0.35294118  0.35294118 1.0
  0.38235294  0.38235294  0.38235294 1.0
  0.41176471  0.41176471  0.41176471 1.0
  0.44117647  0.44117647  0.44117647 1.0
  0.47058824  0.47058824  0.47058824 1.0
  0.50000000  0.50000000  0.50000000 1.0
  0.50000000  0.48076923  0.51923077 1.0
  0.50000000  0.46153846  0.53846154 1.0
  0.50000000  0.44230769  0.55769231 1.0
  0.50000000  0.42307692  0.57692308 1.0
  0.50000000  0.40384615  0.59615385 1.0
  0.50000000  0.38461538  0.61538462 1.0
  0.50000000  0.36538462  0.63461538 1.0
  0.50000000  0.34615385  0.65384615 1.0
  0.50000000  0.32692308  0.67307692 1.0
  0.50000000  0.30769231  0.69230769 1.0
  0.50000000  0.28846154  0.71153846 1.0
  0.50000000  0.26923077  0.73076923 1.0
  0.50000000  0.25000000  0.75000000 1.0
  0.50000000  0.22222222  0.72222222 1.0
  0.50000000  0.19444444  0.69444444 1.0
  0.50000000  0.16666667  0.66666667 1.0
  0.50000000  0.13888889  0.63888889 1.0
  0.50000000  0.11111111  0.61111111 1.0
  0.50000000  0.08333333  0.58333333 1.0
  0.50000000  0.05555556  0.55555556 1.0
  0.50000000  0.02777778  0.52777778 1.0
  0.50000000  0.00000000  0.50000000 1.0
