 &control
    calculation     = 'scf'
    prefix          = 'si'
    restart_mode    = 'from_scratch'
    pseudo_dir      = '~/PP/all'
    outdir          = './temp_nonstandard/'
    tprnfor         = .true.
    tstress         = .true.
 /
 &system
    ibrav     = 0
    celldm(1) = 10.26328
    nat       = 2
    ntyp      = 1
    ecutwfc   = 70.0
 /
 &electrons
    diagonalization = 'david'
    mixing_beta     = 0.7
    conv_thr        = 1.0d-15
 /
ATOMIC_SPECIES
 Si  28.0855  Si.dojo.sr.ONCVv0.4.lda.standard.upf
CELL_PARAMETERS alat
 -0.49750208 -0.04991671  0.5
 -0.04991671  0.49750208  0.5
 -1.04492087  0.39766867  0.5
ATOMIC_POSITIONS crystal
 Si  0.00  0.00  0.00
 Si  0.00  0.25  0.25
K_POINTS automatic
 16 16 16 0 0 0

